100
100
100
100
98
98
96
95
95
95
94
94
93
93
88
87
85
84
80
80
80
79
78
78
78
77
77
77
76
76
73
71
71
70
70
70
70
69
69
68
67
67
66
66
66
66
66
66
66
64
63
63
63
61
61
61
61
60
59
59
59
58
57
57
57
56
55
54
54
53
51
51
49
49
49
48
47
45
44
44
42
41
41
41
40
39
39
39
38
38
37
37
37
36
35
34
34
33
32
32
32
31
